NAME 
ROWS
 N  OBJ
 L  R0      
 E  R1      
 E  R2      
 E  R3      
 E  R4      
 E  R5      
COLUMNS
    MARKER    'MARKER'                 'INTORG'
    I0(4)     OBJ       -57
    I0(4)     R0        -114
    I0(4)     R1        9
    I0(4)     R2        11
    I0(4)     R5        1
    I1(3)     OBJ       -52
    I1(3)     R0        37
    I1(3)     R1        14
    I1(3)     R5        1
    MARKER    'MARKER'                 'INTEND'
    C2(4)     OBJ       -3
    C2(4)     R0        -5
    C2(4)     R1        3
    C2(4)     R2        1
    C2(4)     R4        6
    C3(4)     R0        2
    C3(4)     R2        1
    C3(4)     R3        11
    C3(4)     R4        5
    C4(5)     OBJ       1
    C4(5)     R0        6
    C4(5)     R1        12
    C4(5)     R2        6
    C4(5)     R3        -1
    C4(5)     R4        5
    C5(1)     R1        1
    C6(1)     R2        1
    C7(1)     R3        1
    C8(1)     R4        1
    C9(1)     R5        1
RHS
    RHS1      R0        -47.5
    RHS1      R1        99
    RHS1      R2        85
    RHS1      R3        52
    RHS1      R4        57
BOUNDS
 UP BND1      I0(4)     1
 UP BND1      I1(3)     1
ENDATA
